26 19 
53 62 
17 21 
86 85 
73 61 
27 99 
32 5 
47 79 
13 56 
74 18 
21 64 
95 22 
50 10 
95 53 
17 0 
83 95 
19 88 
58 36 
9 96 
73 34 
57 53 
33 42 
58 80 
73 23 
89 48 
42 62 
64 89 
84 14 
99 31 
68 69 
31 51 
64 50 
91 74 
38 0 
70 63 
34 80 
16 20 
22 27 
0 47 
50 89 
95 92 
3 11 
33 87 
26 85 
70 46 
54 1 
49 70 
3 40 
97 93 
92 67 
